db/data/9375265463110114382720134332829620282.z3.out
-------------------
2500.133242070
